p tw 24 36
1 11
1 16
1 22
2 9
2 17
2 23
3 6
3 10
3 12
4 13
4 21
4 23
5 7
5 10
5 21
6 19
6 24
7 14
7 18
8 9
8 20
8 24
9 16
10 15
11 22
11 24
12 15
12 23
13 19
13 20
14 18
14 19
15 17
16 18
17 20
21 22
